\Problem name: teste4.txt

Minimize
OBJROW: -9 x_1 -7 x_2 -10 x_3 -7 x_4 -9 x_5 -6 x_6 -8 x_7 -4 x_8 -9 x_9
Subject To
constr(0):  4 x_1 + 9 x_2 + 4 x_3 + x_4 + 9 x_5 + 6 x_6 + 3 x_7 + 6 x_8 + x_9 <= 40
constr(1):  3 x_1 + 7 x_2 + 8 x_3 + 7 x_4 + 6 x_5 + 3 x_6 + 5 x_7 + 9 x_8 + 4 x_9 <= 80
constr(2):  9 x_1 + 3 x_2 + 6 x_3 + 5 x_4 + 7 x_5 + x_6 + x_7 + 3 x_8 + 9 x_9 <= 40
constr(3):  5 x_1 + 9 x_2 + 6 x_3 + 5 x_4 + 9 x_5 + 7 x_6 + 8 x_7 + 7 x_8 + 8 x_9 <= 10
constr(4):  7 x_1 + 7 x_2 + 4 x_3 + x_4 + 3 x_5 + 4 x_6 + 8 x_7 + x_8 + 9 x_9 <= 10
constr(5):  x_1 + 6 x_2 + 6 x_3 + x_4 + 6 x_5 + 7 x_6 + 3 x_7 + 8 x_8 + 7 x_9 <= 10
constr(6):  6 x_1 + 6 x_2 + 8 x_3 + 6 x_4 + 10 x_5 + 8 x_6 + x_7 + 4 x_8 + 4 x_9 <= 70
constr(7):  9 x_1 + x_2 + 9 x_3 + 7 x_4 + 10 x_5 + 5 x_6 + 6 x_7 + 2 x_8 + 5 x_9 <= 10
constr(8):  2 x_1 + 7 x_2 + 6 x_3 + 5 x_4 + x_5 + x_6 + 9 x_7 + 2 x_8 + x_9 <= 20
Bounds
 0 <= x_1 <= 1
 0 <= x_2 <= 1
 0 <= x_3 <= 1
 0 <= x_4 <= 1
 0 <= x_5 <= 1
 0 <= x_6 <= 1
 0 <= x_7 <= 1
 0 <= x_8 <= 1
 0 <= x_9 <= 1
End
